c WMC file for PBN EPFL/random_control/ctrl_distill_EPFL/random_control/ctrl_miter written by probABC
p cnf 43 96
12 4 5 0
-12 -4 0
-12 -5 0
13 -4 -5 0
-13 4 0
-13 5 0
14 12 13 0
-14 -12 0
-14 -13 0
15 -1 14 0
-15 1 0
-15 -14 0
16 8 -15 0
-16 -8 0
-16 15 0
17 1 -12 0
-17 -1 0
-17 12 0
18 -8 15 0
-18 8 0
-18 -15 0
19 16 17 0
-19 -16 0
-19 -17 0
20 18 -19 0
-20 -18 0
-20 19 0
21 2 -15 0
-21 -2 0
-21 15 0
22 -20 -21 0
-22 20 0
-22 21 0
23 -1 -2 0
-23 1 0
-23 2 0
24 -7 -9 0
-24 7 0
-24 9 0
25 -23 -24 0
-25 23 0
-25 24 0
26 22 25 0
-26 -22 0
-26 -25 0
27 3 26 0
-27 -3 0
-27 -26 0
28 -1 -13 0
-28 1 0
-28 13 0
29 12 28 0
-29 -12 0
-29 -28 0
30 -2 -3 0
-30 2 0
-30 3 0
31 2 3 0
-31 -2 0
-31 -3 0
32 30 31 0
-32 -30 0
-32 -31 0
33 -29 32 0
-33 29 0
-33 -32 0
34 20 -33 0
-34 -20 0
-34 33 0
35 3 -9 0
-35 -3 0
-35 9 0
36 -23 -35 0
-36 23 0
-36 35 0
37 29 -30 0
-37 -29 0
-37 30 0
38 -20 -37 0
-38 20 0
-38 37 0
39 10 36 0
-39 -10 0
-39 -36 0
40 34 -39 0
-40 -34 0
-40 39 0
41 38 -40 0
-41 -38 0
-41 40 0
42 27 -41 0
-42 -27 0
-42 41 0
11 42 0
-11 -42 0
11 0
w 1 0.500000
w 2 0.500000
w 3 0.500000
w 4 0.500000
w 5 0.500000
w 6 0.500000
w 7 0.500000
w 8 0.125000
w 9 0.125000
w 10 0.125000
w 12 -1
w 13 -1
w 14 -1
w 15 -1
w 16 -1
w 17 -1
w 18 -1
w 19 -1
w 20 -1
w 21 -1
w 22 -1
w 23 -1
w 24 -1
w 25 -1
w 26 -1
w 27 -1
w 28 -1
w 29 -1
w 30 -1
w 31 -1
w 32 -1
w 33 -1
w 34 -1
w 35 -1
w 36 -1
w 37 -1
w 38 -1
w 39 -1
w 40 -1
w 41 -1
w 42 -1
w 11 -1
